
GUB cover cuts applied:  1
Clique cuts applied:  2
Cover cuts applied:  6
Implied bound cuts applied:  48
Mixed integer rounding cuts applied:  14
Zero-half cuts applied:  3
Multi commodity flow cuts applied:  3

Root node processing (before b&c):
  Real time             =    0.05 sec. (35.89 ticks)
Parallel b&c, 4 threads:
  Real time             =    0.02 sec. (12.90 ticks)
  Sync time (average)   =    0.01 sec.
  Wait time (average)   =    0.00 sec.
                          ------------
Total (root+branch&cut) =    0.07 sec. (48.78 ticks)
Version identifier: 12.10.0.0 | 2019-11-26 | 843d4de
CPXPARAM_MIP_Interval                            10
CPXPARAM_MIP_Tolerances_AbsMIPGap                0.98999999999999999
Tried aggregator 2 times.
MIP Presolve eliminated 3501 rows and 1676 columns.
MIP Presolve added 4 rows and 0 columns.
MIP Presolve modified 134 coefficients.
Aggregator did 11 substitutions.
Reduced MIP has 1690 rows, 202 columns, and 3682 nonzeros.
Reduced MIP has 161 binaries, 41 generals, 0 SOSs, and 0 indicators.
Presolve time = 0.01 sec. (5.91 ticks)
Found incumbent of value 21.000000 after 0.01 sec. (10.72 ticks)
Probing fixed 0 vars, tightened 6 bounds.
Probing time = 0.00 sec. (0.70 ticks)
Cover probing fixed 0 vars, tightened 30 bounds.
Tried aggregator 1 time.
Detecting symmetries...
MIP Presolve eliminated 1318 rows and 0 columns.
MIP Presolve modified 21 coefficients.
Reduced MIP has 372 rows, 202 columns, and 1046 nonzeros.
Reduced MIP has 161 binaries, 41 generals, 0 SOSs, and 0 indicators.
Presolve time = 0.00 sec. (1.40 ticks)
Probing fixed 0 vars, tightened 6 bounds.
Probing time = 0.00 sec. (0.21 ticks)
Cover probing fixed 0 vars, tightened 27 bounds.
Clique table members: 256.
MIP emphasis: balance optimality and feasibility.
MIP search method: dynamic search.
Parallel mode: deterministic, using up to 4 threads.
Root relaxation solution time = 0.00 sec. (1.14 ticks)

        Nodes                                         Cuts/
   Node  Left     Objective  IInf  Best Integer    Best Bound    ItCnt     Gap

*     0+    0                           21.0000       42.0000           100.00%
      0     0       27.3333    70       21.0000       27.3333      140   30.16%
      0     0       27.3333    70       21.0000       Cuts: 6      161   30.16%
      0     0       27.3333    70       21.0000      Cuts: 53      216   30.16%
      0     0       27.3333    70       21.0000      Cuts: 34      275   30.16%
*     0+    0                           23.0000       27.3333            18.84%
Detecting symmetries...
      0     2       27.3333    27       23.0000       27.3333      275   18.84%
Elapsed time = 0.07 sec. (35.07 ticks, tree = 0.02 MB, solutions = 2)
*     6+    3                           24.0000       27.3333            13.89%
*     9+    3                           26.0000       27.3333             5.13%
     10     5       27.1667    32       26.0000       27.3333      422    5.13%
     20     7        cutoff             26.0000       27.3333      800    5.13%
     30     3        cutoff             26.0000       27.3333     1514    5.13%
     40     2       27.0667    43       26.0000       27.1111     1908    4.27%
the number of Nodes = 42
